node 0 w: 4.62, h: 10.36
node 1 w: 7.0, h: 3.78
node 2 w: 2.12026-06-21 14:44:03 - INFO - Set parameter WLSAccessID
2026-06-21 14:44:03 - INFO - Set parameter WLSSecret
2026-06-21 14:44:03 - INFO - Set parameter LicenseID to value 2756663
2026-06-21 14:44:03 - INFO - Academic license 2756663 - for non-commercial use only - registered to hu___@sjtu.edu.cn
2026-06-21 14:44:03 - INFO - Set parameter TimeLimit to value 300
2026-06-21 14:44:03 - INFO - Set parameter MIPGap to value 0
2026-06-21 14:44:03 - INFO - Set parameter MIPFocus to value 3
2026-06-21 14:44:03 - INFO - Set parameter Heuristics to value 0.5
2026-06-21 14:44:03 - INFO - Set parameter LogToConsole to value 1
2026-06-21 14:44:03 - INFO - Gurobi Optimizer version 13.0.1 build v13.0.1rc0 (linux64 - "Ubuntu 20.04.6 LTS")
2026-06-21 14:44:03 - INFO - 
2026-06-21 14:44:03 - INFO - CPU model: AMD Ryzen 9 9950X3D 16-Core Processor, instruction set [SSE2|AVX|AVX2|AVX512]
2026-06-21 14:44:03 - INFO - Thread count: 14 physical cores, 28 logical processors, using up to 28 threads
2026-06-21 14:44:03 - INFO - 
2026-06-21 14:44:03 - INFO - Non-default parameters:
2026-06-21 14:44:03 - INFO - TimeLimit  300
2026-06-21 14:44:03 - INFO - MIPGap  0
2026-06-21 14:44:03 - INFO - Heuristics  0.5
2026-06-21 14:44:03 - INFO - MIPFocus  3
2026-06-21 14:44:03 - INFO - 
2026-06-21 14:44:03 - INFO - Academic license 2756663 - for non-commercial use only - registered to hu___@sjtu.edu.cn
2026-06-21 14:44:03 - INFO - Optimize a model with 1845 rows, 846 columns and 6315 nonzeros (Min)
2026-06-21 14:44:03 - INFO - Model fingerprint: 0x0c26dfeb
2026-06-21 14:44:03 - INFO - Model has 4 linear objective coefficients
2026-06-21 14:44:03 - INFO - Variable types: 326 continuous, 520 integer (520 binary)
2026-06-21 14:44:03 - INFO - Coefficient statistics:
2026-06-21 14:44:03 - INFO -   Matrix range     [3e-01, 4e+03]
2026-06-21 14:44:03 - INFO -   Objective range  [2e-05, 1e-01]
2026-06-21 14:44:03 - INFO -   Bounds range     [9e-01, 2e+07]
2026-06-21 14:44:03 - INFO -   RHS range        [9e-01, 3e+02]
2026-06-21 14:44:03 - INFO - 
2026-06-21 14:44:03 - INFO - Presolve removed 139 rows and 117 columns
2026-06-21 14:44:03 - INFO - Presolve time: 0.01s
2026-06-21 14:44:03 - INFO - Presolved: 1706 rows, 729 columns, 5960 nonzeros
2026-06-21 14:44:03 - INFO - Variable types: 235 continuous, 494 integer (494 binary)
2026-06-21 14:44:03 - INFO - Root relaxation presolve removed 266 rows and 76 columns
2026-06-21 14:44:03 - INFO - Root relaxation presolved: 1440 rows, 675 columns, 5328 nonzeros
2026-06-21 14:44:03 - INFO - 
2026-06-21 14:44:03 - INFO - 
2026-06-21 14:44:03 - INFO - Root relaxation: objective -6.450461e+01, 345 iterations, 0.00 seconds (0.01 work units)
2026-06-21 14:44:03 - INFO - 
2026-06-21 14:44:03 - INFO -     Nodes    |    Current Node    |     Objective Bounds      |     Work
2026-06-21 14:44:03 - INFO -  Expl Unexpl |  Obj  Depth IntInf | Incumbent    BestBd   Gap | It/Node Time
2026-06-21 14:44:03 - INFO - 
2026-06-21 14:44:03 - INFO -      0     0  -64.50461    0  212          -  -64.50461      -     -    0s
2026-06-21 14:44:03 - INFO -      0     0  -62.45677    0  228          -  -62.45677      -     -    0s
2026-06-21 14:44:03 - INFO -      0     0  -62.45677    0  214          -  -62.45677      -     -    0s
2026-06-21 14:44:03 - INFO -      0     0  -56.59012    0  222          -  -56.59012      -     -    0s
2026-06-21 14:44:03 - INFO -      0     0  -56.59012    0  232          -  -56.59012      -     -    0s
2026-06-21 14:44:03 - INFO -      0     0  -56.59012    0  235          -  -56.59012      -     -    0s
2026-06-21 14:44:03 - INFO -      0     0  -56.59012    0  235          -  -56.59012      -     -    0s
2026-06-21 14:44:03 - INFO -      0     0  -50.70341    0  240          -  -50.70341      -     -    0s
2026-06-21 14:44:04 - INFO -      0     0  -50.70341    0  210          -  -50.70341      -     -    0s
2026-06-21 14:44:04 - INFO -      0     0  -39.24186    0  215          -  -39.24186      -     -    0s
2026-06-21 14:44:04 - INFO -      0     0  -39.24186    0  215          -  -39.24186      -     -    0s
2026-06-21 14:44:04 - INFO -      0     0  -39.24186    0  220          -  -39.24186      -     -    0s
2026-06-21 14:44:04 - INFO -      0     0  -39.24186    0  228          -  -39.24186      -     -    0s
2026-06-21 14:44:04 - INFO -      0     0  -39.24186    0  229          -  -39.24186      -     -    0s
2026-06-21 14:44:04 - INFO -      0     0  -39.02923    0  228          -  -39.02923      -     -    0s
2026-06-21 14:44:04 - INFO -      0     0  -39.02923    0  223          -  -39.02923      -     -    0s
2026-06-21 14:44:04 - INFO -      0     0  -38.99989    0  225          -  -38.99989      -     -    0s
2026-06-21 14:44:04 - INFO -      0     0  -33.59944    0  224          -  -33.59944      -     -    0s
2026-06-21 14:44:04 - INFO -      0     0  -33.59944    0  216          -  -33.59944      -     -    0s
2026-06-21 14:44:04 - INFO -      0     0  -33.59944    0  192          -  -33.59944      -     -    1s
2026-06-21 14:44:04 - INFO -      0     0  -25.36771    0  210          -  -25.36771      -     -    1s
2026-06-21 14:44:04 - INFO -      0     0  -25.31367    0  219          -  -25.31367      -     -    1s
2026-06-21 14:44:04 - INFO -      0     0  -25.26435    0  218          -  -25.26435      -     -    1s
2026-06-21 14:44:04 - INFO -      0     0  -25.05651    0  224          -  -25.05651      -     -    1s
2026-06-21 14:44:04 - INFO -      0     0  -22.14277    0  212          -  -22.14277      -     -    1s
2026-06-21 14:44:04 - INFO -      0     0  -22.14277    0  206          -  -22.14277      -     -    1s
2026-06-21 14:44:04 - INFO -      0     0  -22.14277    0  173          -  -22.14277      -     -    1s
2026-06-21 14:44:05 - INFO -      0     0  -21.50507    0  174          -  -21.50507      -     -    1s
2026-06-21 14:44:05 - INFO -      0     0  -21.49735    0  188          -  -21.49735      -     -    1s
2026-06-21 14:44:05 - INFO -      0     0  -21.49574    0  187          -  -21.49574      -     -    1s
2026-06-21 14:44:05 - INFO -      0     0  -21.49574    0  202          -  -21.49574      -     -    1s
2026-06-21 14:44:05 - INFO -      0     0  -20.52641    0  192          -  -20.52641      -     -    1s
2026-06-21 14:44:05 - INFO -      0     0  -20.52641    0  187          -  -20.52641      -     -    1s
2026-06-21 14:44:05 - INFO -      0     0  -19.65812    0  208          -  -19.65812      -     -    1s
2026-06-21 14:44:05 - INFO -      0     0  -19.64442    0  200          -  -19.64442      -     -    1s
2026-06-21 14:44:05 - INFO -      0     0  -19.62844    0  211          -  -19.62844      -     -    1s
2026-06-21 14:44:05 - INFO -      0     0  -19.19254    0  206          -  -19.19254      -     -    1s
2026-06-21 14:44:05 - INFO -      0     0  -19.19254    0  205          -  -19.19254      -     -    1s
2026-06-21 14:44:05 - INFO -      0     0  -19.19254    0  198          -  -19.19254      -     -    2s
2026-06-21 14:44:05 - INFO -      0     0  -18.71331    0  201          -  -18.71331      -     -    2s
2026-06-21 14:44:05 - INFO -      0     0  -18.69921    0  216          -  -18.69921      -     -    2s
2026-06-21 14:44:05 - INFO -      0     0  -18.47304    0  204          -  -18.47304      -     -    2s
2026-06-21 14:44:05 - INFO -      0     0  -18.47304    0  203          -  -18.47304      -     -    2s
2026-06-21 14:44:05 - INFO -      0     0  -18.47304    0  184          -  -18.47304      -     -    2s
2026-06-21 14:44:06 - INFO -      0     0  -18.30001    0  197          -  -18.30001      -     -    2s
2026-06-21 14:44:06 - INFO -      0     0  -17.85142    0  230          -  -17.85142      -     -    2s
2026-06-21 14:44:06 - INFO -      0     0  -17.85142    0  212          -  -17.85142      -     -    2s
2026-06-21 14:44:06 - INFO -      0     0  -17.40816    0  226          -  -17.40816      -     -    2s
2026-06-21 14:44:06 - INFO -      0     0  -17.40816    0  233          -  -17.40816      -     -    2s
2026-06-21 14:44:06 - INFO -      0     0  -17.32826    0  221          -  -17.32826      -     -    3s
2026-06-21 14:44:06 - INFO -      0     0  -17.32826    0  210          -  -17.32826      -     -    3s
2026-06-21 14:44:06 - INFO -      0     0  -17.25737    0  221          -  -17.25737      -     -    3s
2026-06-21 14:44:06 - INFO -      0     0  -17.17667    0  225          -  -17.17667      -     -    3s
2026-06-21 14:44:06 - INFO -      0     0  -17.17667    0  225          -  -17.17667      -     -    3s
2026-06-21 14:44:07 - INFO -      0     0  -17.17667    0  215          -  -17.17667      -     -    3s
2026-06-21 14:44:07 - INFO -      0     0  -17.00828    0  208          -  -17.00828      -     -    3s
2026-06-21 14:44:07 - INFO -      0     0  -17.00828    0  197          -  -17.00828      -     -    3s
2026-06-21 14:44:08 - INFO - H    0     0                      12.9773484  -17.00828   231%     -    4s
2026-06-21 14:44:08 - INFO - H    0     0                       8.3187325  -17.00828   304%     -    4s
2026-06-21 14:44:08 - INFO - H    0     0                       8.1313605  -17.00828   309%     -    4s
2026-06-21 14:44:08 - INFO -      0     2  -17.00828    0  196    8.13136  -17.00828   309%     -    4s
2026-06-21 14:44:08 - INFO - H   15    30                       6.6459734  -17.00828   356%   354    5s
2026-06-21 14:44:08 - INFO - H   21    30                       6.5664206  -17.00828   359%   484    5s
2026-06-21 14:44:08 - INFO - H   28    30                       6.4173880  -17.00828   365%   495    5s
2026-06-21 14:44:09 - INFO - H   46    64                       6.4173431  -14.74371   330%   533    5s
2026-06-21 14:44:09 - INFO - H   47    64                       6.3329359  -14.58288   330%   536    5s
2026-06-21 14:44:09 - INFO - H  123   161                       6.3291659  -10.60805   268%   553    6s
2026-06-21 14:44:09 - INFO - H  126   161                       6.2669789  -10.54976   268%   551    6s
2026-06-21 14:44:09 - INFO - H  133   161                       6.2444999  -10.48068   268%   548    6s
2026-06-21 14:44:09 - INFO - H  146   161                       6.1523168  -10.36945   269%   546    6s
2026-06-21 14:44:09 - INFO - H  150   161                       6.1031107  -10.36048   270%   543    6s
2026-06-21 14:44:10 - INFO - H  235   234                       6.0371536   -7.68196   227%   539    7s
2026-06-21 14:44:10 - INFO - H  248   271                       4.3155048   -7.45719   273%   532    7s
2026-06-21 14:44:10 - INFO - H  276   271                       4.3154599   -7.22289   267%   521    7s
2026-06-21 14:44:11 - INFO - H  294   302                       4.3153852   -6.98011   262%   527    7s
2026-06-21 14:44:11 - INFO - H  331   345                       4.0979124   -6.70156   264%   526    7s
2026-06-21 14:44:13 - INFO -    561   564   -4.74197   11  182    4.09791   -5.35165   231%   507   10s
2026-06-21 14:44:14 - INFO - H  585   578                       4.0474311   -5.22008   229%   515   10s
2026-06-21 14:44:14 - INFO - H  589   605                       3.7383007   -5.16943   238%   517   10s
2026-06-21 14:44:14 - INFO - H  597   605                       3.6237196   -5.14001   242%   515   10s
2026-06-21 14:44:14 - INFO - H  618   643                       3.5964782   -5.07062   241%   521   10s
2026-06-21 14:44:14 - INFO - H  699   692                       3.5964063   -4.73736   232%   532   11s
2026-06-21 14:44:18 - INFO -   1075  1070   -1.67415   10  199    3.59641   -3.66560   202%   560   15s
                      0
  Nodes explored:            (not available)
  Simplex iterations:        (not available)

[MEMORY USAGE]
  Initial memory:                     97.09 MB
  Peak memory:                         0.00 MB
  Final memory:                        0.00 MB
  Peak increase:                     -97.09 MB
  Final increase:                    -97.09 MB

================================================================================
Set parameter TimeLimit to value 300
Set parameter MIPGap to value 0
Set parameter MIPFocus to value 3
Set parameter Heuristics to value 0.5
Set parameter LogToConsole to value 1
Gurobi Optimizer version 13.0.1 build v13.0.1rc0 (linux64 - "Ubuntu 20.04.6 LTS")

CPU model: AMD Ryzen 9 9950X3D 16-Core Processor, instruction set [SSE2|AVX|AVX2|AVX512]
Thread count: 14 physical cores, 28 logical processors, using up to 28 threads

Non-default parameters:
TimeLimit  300
MIPGap  0
Heuristics  0.5
MIPFocus  3

Academic license 2756663 - for non-commercial use only - registered to hu___@sjtu.edu.cn
Optimize a model with 1845 rows, 846 columns and 6315 nonzeros (Min)
Model fingerprint: 0x0c26dfeb
Model has 4 linear objective coefficients
Variable types: 326 continuous, 520 integer (520 binary)
Coefficient statistics:
  Matrix range     [3e-01, 4e+03]
  Objective range  [2e-05, 1e-01]
  Bounds range     [9e-01, 2e+07]
  RHS range        [9e-01, 3e+02]

Presolve removed 139 rows and 117 columns
Presolve time: 0.01s
Presolved: 1706 rows, 729 columns, 5960 nonzeros
Variable types: 235 continuous, 494 integer (494 binary)
Root relaxation presolve removed 266 rows and 76 columns
Root relaxation presolved: 1440 rows, 675 columns, 5328 nonzeros


Root relaxation: objective -6.450461e+01, 345 iterations, 0.00 seconds (0.01 work units)

    Nodes    |    Current Node    |     Objective Bounds      |     Work
 Expl Unexpl |  Obj  Depth IntInf | Incumbent    BestBd   Gap | It/Node Time

     0     0  -64.50461    0  212          -  -64.50461      -     -    0s
     0     0  -62.45677    0  228          -  -62.45677      -     -    0s
     0     0  -62.45677    0  214          -  -62.45677      -     -    0s
     0     0  -56.59012    0  222          -  -56.59012      -     -    0s
     0     0  -56.59012    0  232          -  -56.59012      -     -    0s
     0     0  -56.59012    0  235          -  -56.59012      -     -    0s
     0     0  -56.59012    0  235          -  -56.59012      -     -    0s
     0     0  -50.70341    0  240          -  -50.70341      -     -    0s
     0     0  -50.70341    0  210          -  -50.70341      -     -    0s
     0     0  -39.24186    0  215          -  -39.24186      -     -    0s
     0     0  -39.24186    0  215          -  -39.24186      -     -    0s
     0     0  -39.24186    0  220          -  -39.24186      -     -    0s
     0     0  -39.24186    0  228          -  -39.24186      -     -    0s
     0     0  -39.24186    0  229          -  -39.24186      -     -    0s
     0     0  -39.02923    0  228          -  -39.02923      -     -    0s
     0     0  -39.02923    0  223          -  -39.02923      -     -    0s
     0     0  -38.99989    0  225          -  -38.99989      -     -    0s
     0     0  -33.59944    0  224          -  -33.59944      -     -    0s
     0     0  -33.59944    0  216          -  -33.59944      -     -    0s
     0     0  -33.59944    0  192          -  -33.59944      -     -    1s
     0     0  -25.36771    0  210          -  -25.36771      -     -    1s
     0     0  -25.31367    0  219          -  -25.31367      -     -    1s
     0     0  -25.26435    0  218          -  -25.26435      -     -    1s
     0     0  -25.05651    0  224          -  -25.05651      -     -    1s
     0     0  -22.14277    0  212          -  -22.14277      -     -    1s
     0     0  -22.14277    0  206          -  -22.14277      -     -    1s
     0     0  -22.14277    0  173          -  -22.14277      -     -    1s
     0     0  -21.50507    0  174          -  -21.50507      -     -    1s
     0     0  -21.49735    0  188          -  -21.49735      -     -    1s
     0     0  -21.49574    0  187          -  -21.49574      -     -    1s
     0     0  -21.49574    0  202          -  -21.49574      -     -    1s
     0     0  -20.52641    0  192          -  -20.52641      -     -    1s
     0     0  -20.52641    0  187          -  -20.52641      -     -    1s
     0     0  -19.65812    0  208          -  -19.65812      -     -    1s
     0     0  -19.64442    0  200          -  -19.64442      -     -    1s
     0     0  -19.62844    0  211          -  -19.62844      -     -    1s
     0     0  -19.19254    0  206          -  -19.19254      -     -    1s
     0     0  -19.19254    0  205          -  -19.19254      -     -    1s
     0     0  -19.19254    0  198          -  -19.19254      -     -    2s
     0     0  -18.71331    0  201          -  -18.71331      -     -    2s
     0     0  -18.69921    0  216          -  -18.69921      -     -    2s
     0     0  -18.47304    0  204          -  -18.47304      -     -    2s
     0     0  -18.47304    0  203          -  -18.47304      -     -    2s
     0     0  -18.47304    0  184          -  -18.47304      -     -    2s
     0     0  -18.30001    0  197          -  -18.30001      -     -    2s
     0     0  -17.85142    0  230          -  -17.85142      -     -    2s
     0     0  -17.85142    0  212          -  -17.85142      -     -    2s
     0     0  -17.40816    0  226          -  -17.40816      -     -    2s
     0     0  -17.40816    0  233          -  -17.40816      -     -    2s
     0     0  -17.32826    0  221          -  -17.32826      -     -    3s
     0     0  -17.32826    0  210          -  -17.32826      -     -    3s
     0     0  -17.25737    0  221          -  -17.25737      -     -    3s
     0     0  -17.17667    0  225          -  -17.17667      -     -    3s
     0     0  -17.17667    0  225          -  -17.17667      -     -    3s
     0     0  -17.17667    0  215          -  -17.17667      -     -    3s
     0     0  -17.00828    0  208          -  -17.00828      -     -    3s
     0     0  -17.00828    0  197          -  -17.00828      -     -    3s
H    0     0                      12.9773484  -17.00828   231%     -    4s
H    0     0                       8.3187325  -17.00828   304%     -    4s
H    0     0                       8.1313605  -17.00828   309%     -    4s
     0     2  -17.00828    0  196    8.13136  -17.00828   309%     -    4s
H   15    30                       6.6459734  -17.00828   356%   354    5s
H   21    30                       6.5664206  -17.00828   359%   484    5s
H   28    30                       6.4173880  -17.00828   365%   495    5s
H   46    64                       6.4173431  -14.74371   330%   533    5s
H   47    64                       6.3329359  -14.58288   330%   536    5s
H  123   161                       6.3291659  -10.60805   268%   553    6s
H  126   161                       6.2669789  -10.54976   268%   551    6s
H  133   161                       6.2444999  -10.48068   268%   548    6s
H  146   161                       6.1523168  -10.36945   269%   546    6s
H  150   161                       6.1031107  -10.36048   270%   543    6s
H  235   234                       6.0371536   -7.68196   227%   539    7s
H  248   271                       4.3155048   -7.45719   273%   532    7s
H  276   271                       4.3154599   -7.22289   267%   521    7s
H  294   302                       4.3153852   -6.98011   262%   527    7s
H  331   345                       4.0979124   -6.70156   264%   526    7s
   561   564   -4.74197   11  182    4.09791   -5.35165   231%   507   10s
H  585   578                       4.0474311   -5.22008   229%   515   10s
H  589   605                       3.7383007   -5.16943   238%   517   10s
H  597   605                       3.6237196   -5.14001   242%   515   10s
H  618   643                       3.5964782   -5.07062   241%   521   10s
H  699   692                       3.5964063   -4.73736   232%   532   11s
  1075  1070   -1.67415   10  199    3.59641   -3.66560   202%   560   15s
